p edges 272 1069
e 1 5
e 1 8
e 1 38
e 1 47
e 1 95
e 2 6
e 2 48
e 2 73
e 2 93
e 2 197
e 3 39
e 3 41
e 3 78
e 3 140
e 3 186
e 4 94
e 4 115
e 4 187
e 4 198
e 5 8
e 5 38
e 5 47
e 5 95
e 6 48
e 6 73
e 6 93
e 6 197
e 7 40
e 7 42
e 7 77
e 7 92
e 7 152
e 7 196
e 8 38
e 8 47
e 8 95
e 9 12
e 9 16
e 9 74
e 9 76
e 9 86
e 9 91
e 9 111
e 9 113
e 9 114
e 9 170
e 9 185
e 9 203
e 10 11
e 10 17
e 10 27
e 10 29
e 10 56
e 10 85
e 10 110
e 10 159
e 10 169
e 10 175
e 10 191
e 10 202
e 10 206
e 11 17
e 11 27
e 11 29
e 11 56
e 11 85
e 11 110
e 11 159
e 11 169
e 11 175
e 11 191
e 11 202
e 11 206
e 12 16
e 12 74
e 12 76
e 12 86
e 12 91
e 12 111
e 12 113
e 12 114
e 12 170
e 12 185
e 12 203
e 13 28
e 13 80
e 13 82
e 13 89
e 13 121
e 13 141
e 13 144
e 13 160
e 13 165
e 13 178
e 14 72
e 14 91
e 14 119
e 14 164
e 14 167
e 14 188
e 15 25
e 15 33
e 15 43
e 15 49
e 15 66
e 15 87
e 15 88
e 15 105
e 15 106
e 15 108
e 15 117
e 15 120
e 15 201
e 15 207
e 16 45
e 16 74
e 16 76
e 16 86
e 16 91
e 16 119
e 16 170
e 16 185
e 17 22
e 17 56
e 17 69
e 17 71
e 17 81
e 17 85
e 17 110
e 17 159
e 17 169
e 17 175
e 17 191
e 17 202
e 17 206
e 18 36
e 18 57
e 18 59
e 18 61
e 18 82
e 18 89
e 18 100
e 18 102
e 18 158
e 18 171
e 18 173
e 18 190
e 19 58
e 19 60
e 19 75
e 19 90
e 19 101
e 19 103
e 19 168
e 19 172
e 19 174
e 19 184
e 19 197
e 20 70
e 20 72
e 20 74
e 20 76
e 20 91
e 20 170
e 20 185
e 20 198
e 21 35
e 21 55
e 21 88
e 21 105
e 21 153
e 21 196
e 22 56
e 22 69
e 22 71
e 22 140
e 22 159
e 22 169
e 22 175
e 22 191
e 23 42
e 23 79
e 23 104
e 23 106
e 23 108
e 23 117
e 23 120
e 23 125
e 23 147
e 23 152
e 23 189
e 23 201
e 24 80
e 24 121
e 24 123
e 24 126
e 24 148
e 24 160
e 24 165
e 25 49
e 25 66
e 25 87
e 25 105
e 25 106
e 25 108
e 25 128
e 25 129
e 25 138
e 25 139
e 25 143
e 25 176
e 25 177
e 25 189
e 25 201
e 25 204
e 25 207
e 26 68
e 26 75
e 26 84
e 26 107
e 26 109
e 26 142
e 26 151
e 26 154
e 26 162
e 26 166
e 26 168
e 26 172
e 26 174
e 26 205
e 27 29
e 27 71
e 27 85
e 27 145
e 27 161
e 27 163
e 27 169
e 27 175
e 27 191
e 27 199
e 27 200
e 27 202
e 27 206
e 28 37
e 28 67
e 28 83
e 28 141
e 28 144
e 28 150
e 28 160
e 28 165
e 28 171
e 28 173
e 28 178
e 28 190
e 29 71
e 29 85
e 29 145
e 29 161
e 29 163
e 29 169
e 29 175
e 29 191
e 29 199
e 29 200
e 29 202
e 29 206
e 30 31
e 30 32
e 30 33
e 30 34
e 30 38
e 30 57
e 30 59
e 30 141
e 30 144
e 30 160
e 30 165
e 31 32
e 31 33
e 31 34
e 31 58
e 31 60
e 31 142
e 31 146
e 31 162
e 31 166
e 32 33
e 32 34
e 32 39
e 32 41
e 32 56
e 32 140
e 32 145
e 32 161
e 32 163
e 33 34
e 33 43
e 33 49
e 33 92
e 33 117
e 33 120
e 33 152
e 33 176
e 33 177
e 33 207
e 34 58
e 34 60
e 34 107
e 34 109
e 34 116
e 34 122
e 34 124
e 34 127
e 34 146
e 34 149
e 35 36
e 35 37
e 35 88
e 35 105
e 35 196
e 36 37
e 36 82
e 36 89
e 36 100
e 36 102
e 36 158
e 36 171
e 36 173
e 36 190
e 37 67
e 37 83
e 37 155
e 37 171
e 37 173
e 37 190
e 37 193
e 37 195
e 38 47
e 38 57
e 38 59
e 38 141
e 38 144
e 38 160
e 38 165
e 39 41
e 39 56
e 39 78
e 39 140
e 39 145
e 39 161
e 39 163
e 39 186
e 40 42
e 40 55
e 40 77
e 40 92
e 40 128
e 40 129
e 40 143
e 40 153
e 40 189
e 41 56
e 41 78
e 41 140
e 41 145
e 41 161
e 41 163
e 41 186
e 42 77
e 42 92
e 42 125
e 42 147
e 43 49
e 43 96
e 43 97
e 43 104
e 43 132
e 43 135
e 43 152
e 43 180
e 43 182
e 43 207
e 44 46
e 44 62
e 44 64
e 44 69
e 44 110
e 45 65
e 45 70
e 45 74
e 45 76
e 45 111
e 45 113
e 45 114
e 46 62
e 46 64
e 46 69
e 46 110
e 47 52
e 47 61
e 47 82
e 47 121
e 47 130
e 47 131
e 47 178
e 48 54
e 48 73
e 48 93
e 48 116
e 48 122
e 48 154
e 49 66
e 49 87
e 49 88
e 49 105
e 49 106
e 49 108
e 49 138
e 49 139
e 49 207
e 50 53
e 50 69
e 50 118
e 50 186
e 50 191
e 51 70
e 51 74
e 51 76
e 51 94
e 51 119
e 51 185
e 51 187
e 51 188
e 52 61
e 52 121
e 52 130
e 52 131
e 52 133
e 52 136
e 52 178
e 52 190
e 53 69
e 53 118
e 53 186
e 53 191
e 54 73
e 54 75
e 54 93
e 54 116
e 54 122
e 54 134
e 54 137
e 54 154
e 54 184
e 55 105
e 55 153
e 55 204
e 56 140
e 56 202
e 56 206
e 57 59
e 57 61
e 57 150
e 58 60
e 58 146
e 58 151
e 58 205
e 59 61
e 59 150
e 60 146
e 60 151
e 60 205
e 61 82
e 61 130
e 61 131
e 61 178
e 62 64
e 62 69
e 62 110
e 63 73
e 63 75
e 63 112
e 63 134
e 63 137
e 63 149
e 63 156
e 63 157
e 63 183
e 64 69
e 64 110
e 65 70
e 65 74
e 65 76
e 65 111
e 65 113
e 65 114
e 66 87
e 66 105
e 66 106
e 66 108
e 66 138
e 66 139
e 66 192
e 66 194
e 67 83
e 67 171
e 67 173
e 67 190
e 67 193
e 67 195
e 68 73
e 68 75
e 68 84
e 68 107
e 68 109
e 68 168
e 68 172
e 68 174
e 69 71
e 69 118
e 69 159
e 69 169
e 69 175
e 69 191
e 70 72
e 70 74
e 70 76
e 70 91
e 70 119
e 70 170
e 70 185
e 70 188
e 70 198
e 71 81
e 71 159
e 71 186
e 72 91
e 72 115
e 72 185
e 72 187
e 73 93
e 73 116
e 73 122
e 73 149
e 73 154
e 74 76
e 74 86
e 74 119
e 74 170
e 74 185
e 74 188
e 74 198
e 75 84
e 75 116
e 75 122
e 75 134
e 75 137
e 75 168
e 75 172
e 75 174
e 75 184
e 75 197
e 76 86
e 76 119
e 76 170
e 76 185
e 76 188
e 76 198
e 77 92
e 77 152
e 77 196
e 78 140
e 78 186
e 79 88
e 79 96
e 79 97
e 79 104
e 79 106
e 79 108
e 79 117
e 79 120
e 79 138
e 79 139
e 79 176
e 79 177
e 79 189
e 79 201
e 80 82
e 80 89
e 80 121
e 80 160
e 80 165
e 80 178
e 81 118
e 81 161
e 81 163
e 81 199
e 81 200
e 82 83
e 82 89
e 82 100
e 82 102
e 82 130
e 82 131
e 82 158
e 82 171
e 82 173
e 82 190
e 83 89
e 83 158
e 83 171
e 83 173
e 83 190
e 84 90
e 84 168
e 84 172
e 84 174
e 84 184
e 85 159
e 85 169
e 85 175
e 85 191
e 86 91
e 86 170
e 86 185
e 87 88
e 87 105
e 88 96
e 88 97
e 88 105
e 88 138
e 88 139
e 89 100
e 89 102
e 89 158
e 89 171
e 89 173
e 89 190
e 90 101
e 90 103
e 90 168
e 90 172
e 90 174
e 90 184
e 91 170
e 91 185
e 92 117
e 92 120
e 92 152
e 92 176
e 92 177
e 92 196
e 92 207
e 93 116
e 93 122
e 93 154
e 93 197
e 94 115
e 94 119
e 94 187
e 94 198
e 95 133
e 95 136
e 95 150
e 95 155
e 95 179
e 95 181
e 96 97
e 96 104
e 96 106
e 96 108
e 96 138
e 96 139
e 96 153
e 96 180
e 96 182
e 96 192
e 96 194
e 97 104
e 97 106
e 97 108
e 97 138
e 97 139
e 97 153
e 97 180
e 97 182
e 97 192
e 97 194
e 98 99
e 98 196
e 99 196
e 100 102
e 100 158
e 101 103
e 101 184
e 102 158
e 103 184
e 104 106
e 104 108
e 104 138
e 104 139
e 104 147
e 104 152
e 104 153
e 104 180
e 104 182
e 104 192
e 104 194
e 105 106
e 105 108
e 105 138
e 105 139
e 105 153
e 105 201
e 105 204
e 105 207
e 106 108
e 106 117
e 106 120
e 106 138
e 106 139
e 106 176
e 106 177
e 106 189
e 106 201
e 106 204
e 106 207
e 107 109
e 107 116
e 107 122
e 107 146
e 107 151
e 107 154
e 107 162
e 107 166
e 107 205
e 108 117
e 108 120
e 108 138
e 108 139
e 108 176
e 108 177
e 108 189
e 108 201
e 108 204
e 108 207
e 109 116
e 109 122
e 109 146
e 109 151
e 109 154
e 109 162
e 109 166
e 109 205
e 111 113
e 111 114
e 112 156
e 112 157
e 112 183
e 113 114
e 115 119
e 115 187
e 116 122
e 116 134
e 116 137
e 116 146
e 116 154
e 116 162
e 116 166
e 116 184
e 117 120
e 117 132
e 117 135
e 117 176
e 117 177
e 117 189
e 117 201
e 118 161
e 118 163
e 118 186
e 118 191
e 118 199
e 118 200
e 119 164
e 119 167
e 119 185
e 119 187
e 119 188
e 120 132
e 120 135
e 120 176
e 120 177
e 120 189
e 120 201
e 121 130
e 121 131
e 121 133
e 121 136
e 121 160
e 121 165
e 121 178
e 121 190
e 122 134
e 122 137
e 122 146
e 122 154
e 122 162
e 122 166
e 122 184
e 123 126
e 123 148
e 124 127
e 124 149
e 125 147
e 126 148
e 127 149
e 128 129
e 128 143
e 128 176
e 128 177
e 128 189
e 129 143
e 129 176
e 129 177
e 129 189
e 130 131
e 130 178
e 131 178
e 132 135
e 132 152
e 132 189
e 133 136
e 133 150
e 133 190
e 134 137
e 134 151
e 134 154
e 134 184
e 135 152
e 135 189
e 136 150
e 136 190
e 137 151
e 137 154
e 137 184
e 138 139
e 140 186
e 141 144
e 141 160
e 141 165
e 141 178
e 142 146
e 142 162
e 142 166
e 143 176
e 143 177
e 143 189
e 144 160
e 144 165
e 144 178
e 145 161
e 145 163
e 145 199
e 146 154
e 146 162
e 146 166
e 147 148
e 147 149
e 147 152
e 147 189
e 148 149
e 148 160
e 148 165
e 149 162
e 149 166
e 150 151
e 150 152
e 150 153
e 150 154
e 151 152
e 151 153
e 151 154
e 151 205
e 152 153
e 152 154
e 152 176
e 152 177
e 152 196
e 152 207
e 153 154
e 153 192
e 153 194
e 153 204
e 154 205
e 155 179
e 155 181
e 155 193
e 155 195
e 156 157
e 156 183
e 157 183
e 158 171
e 158 173
e 158 190
e 159 169
e 159 175
e 159 191
e 160 165
e 160 178
e 161 163
e 161 199
e 161 200
e 162 166
e 163 199
e 163 200
e 164 167
e 164 188
e 165 178
e 167 188
e 168 172
e 168 174
e 168 184
e 168 197
e 169 175
e 169 191
e 170 185
e 170 198
e 171 173
e 171 190
e 172 174
e 172 184
e 172 197
e 173 190
e 174 184
e 174 197
e 175 191
e 176 177
e 176 189
e 176 201
e 176 207
e 177 189
e 177 201
e 177 207
e 179 181
e 180 182
e 184 197
e 185 188
e 185 198
e 189 201
e 192 194
e 193 195
e 199 200
e 199 202
e 199 206
e 200 202
e 200 206
e 201 204
e 201 207
e 202 206
e 204 207
e 208 209
e 208 210
e 208 211
e 208 212
e 209 210
e 209 211
e 209 212
e 210 211
e 210 212
e 211 212
e 213 214
e 213 215
e 214 215
e 216 217
e 216 218
e 217 218
e 219 220
e 219 221
e 219 222
e 219 223
e 220 221
e 220 222
e 220 223
e 221 222
e 221 223
e 222 223
e 224 225
e 224 226
e 225 226
e 227 228
e 227 229
e 227 230
e 227 231
e 227 232
e 228 229
e 228 230
e 228 231
e 228 232
e 229 230
e 229 231
e 229 232
e 230 231
e 230 232
e 231 232
e 233 234
e 233 235
e 234 235
e 236 237
e 236 238
e 236 239
e 236 240
e 237 238
e 237 239
e 237 240
e 238 239
e 238 240
e 239 240
e 241 242
e 241 243
e 241 244
e 241 245
e 242 243
e 242 244
e 242 245
e 243 244
e 243 245
e 244 245
e 246 247
e 246 248
e 247 248
e 249 250
e 249 251
e 250 251
e 252 253
e 252 254
e 253 254
e 255 256
e 255 257
e 255 258
e 256 257
e 256 258
e 257 258
e 259 260
e 259 261
e 259 262
e 259 263
e 260 261
e 260 262
e 260 263
e 261 262
e 261 263
e 262 263
e 264 265
e 264 266
e 264 267
e 264 268
e 265 266
e 265 267
e 265 268
e 266 267
e 266 268
e 267 268
e 269 270
e 269 271
e 269 272
e 270 271
e 270 272
e 271 272
w 1 217
w 2 217
w 3 217
w 4 189
w 5 217
w 6 215
w 7 217
w 8 217
w 9 158
w 10 158
w 11 66
w 12 158
w 13 76
w 14 292
w 15 322
w 16 48
w 17 9
w 18 201
w 19 172
w 20 316
w 21 358
w 22 358
w 23 122
w 24 105
w 25 119
w 26 70
w 27 119
w 28 24
w 29 29
w 30 97
w 31 97
w 32 97
w 33 476
w 34 230
w 35 381
w 36 381
w 37 237
w 38 62
w 39 62
w 40 62
w 41 62
w 42 263
w 43 53
w 44 290
w 45 245
w 46 227
w 47 285
w 48 285
w 49 97
w 50 299
w 51 299
w 52 114
w 53 299
w 54 201
w 55 390
w 56 10
w 57 390
w 58 195
w 59 390
w 60 390
w 61 16
w 62 71
w 63 71
w 64 71
w 65 71
w 66 141
w 67 141
w 68 141
w 69 194
w 70 194
w 71 297
w 72 297
w 73 21
w 74 95
w 75 95
w 76 95
w 77 382
w 78 382
w 79 273
w 80 363
w 81 363
w 82 234
w 83 318
w 84 318
w 85 318
w 86 318
w 87 318
w 88 254
w 89 29
w 90 254
w 91 68
w 92 73
w 93 260
w 94 260
w 95 116
w 96 43
w 97 43
w 98 477
w 99 477
w 100 11
w 101 260
w 102 2
w 103 260
w 104 3
w 105 5
w 106 125
w 107 125
w 108 125
w 109 125
w 110 340
w 111 340
w 112 340
w 113 1
w 114 340
w 115 340
w 116 318
w 117 318
w 118 149
w 119 189
w 120 13
w 121 191
w 122 113
w 123 280
w 124 155
w 125 280
w 126 280
w 127 280
w 128 129
w 129 129
w 130 434
w 131 29
w 132 332
w 133 332
w 134 142
w 135 332
w 136 332
w 137 76
w 138 192
w 139 192
w 140 65
w 141 500
w 142 500
w 143 500
w 144 29
w 145 384
w 146 85
w 147 333
w 148 333
w 149 333
w 150 218
w 151 218
w 152 281
w 153 51
w 154 230
w 155 4
w 156 4
w 157 4
w 158 139
w 159 139
w 160 279
w 161 279
w 162 279
w 163 112
w 164 235
w 165 30
w 166 37
w 167 279
w 168 124
w 169 124
w 170 124
w 171 124
w 172 124
w 173 124
w 174 124
w 175 124
w 176 59
w 177 59
w 178 59
w 179 579
w 180 436
w 181 299
w 182 420
w 183 579
w 184 51
w 185 122
w 186 208
w 187 208
w 188 3
w 189 3
w 190 28
w 191 57
w 192 429
w 193 429
w 194 429
w 195 191
w 196 45
w 197 306
w 198 50
w 199 74
w 200 21
w 201 21
w 202 552
w 203 447
w 204 552
w 205 194
w 206 202
w 207 50
w 208 217
w 209 158
w 210 292
w 211 322
w 212 9
w 213 358
w 214 122
w 215 119
w 216 97
w 217 476
w 218 230
w 219 62
w 220 263
w 221 290
w 222 285
w 223 97
w 224 299
w 225 390
w 226 16
w 227 71
w 228 141
w 229 194
w 230 297
w 231 21
w 232 95
w 233 382
w 234 363
w 235 234
w 236 318
w 237 254
w 238 260
w 239 116
w 240 43
w 241 477
w 242 260
w 243 3
w 244 5
w 245 125
w 246 340
w 247 340
w 248 318
w 249 280
w 250 129
w 251 434
w 252 332
w 253 192
w 254 65
w 255 218
w 256 281
w 257 51
w 258 230
w 259 4
w 260 139
w 261 279
w 262 124
w 263 59
w 264 579
w 265 122
w 266 208
w 267 3
w 268 86
w 269 429
w 270 306
w 271 74
w 272 21
n 1 C0002
n 2 C0003
n 3 C0004
n 4 C0005
n 5 C0007
n 6 C0008
n 7 C0011
n 8 C0012
n 9 C0020
n 10 C0024
n 11 C0029
n 12 C0030
n 13 C0037
n 14 C0045
n 15 C0051
n 16 C0060
n 17 C0084
n 18 C0092
n 19 C0093
n 20 C0095
n 21 C0096
n 22 C0099
n 23 C0136
n 24 C0137
n 25 C0141
n 26 C0143
n 27 C0144
n 28 C0147
n 29 C0149
n 30 C0152
n 31 C0153
n 32 C0154
n 33 C0161
n 34 C0168
n 35 C0181
n 36 C0182
n 37 C0197
n 38 C0212
n 39 C0214
n 40 C0216
n 41 C0219
n 42 C0226
n 43 C0231
n 44 C0234
n 45 C0235
n 46 C0239
n 47 C0242
n 48 C0248
n 49 C0256
n 50 C0274
n 51 C0275
n 52 C0277
n 53 C0279
n 54 C0283
n 55 C0286
n 56 C0289
n 57 C0292
n 58 C0293
n 59 C0297
n 60 C0298
n 61 C0357
n 62 C0364
n 63 C0368
n 64 C0369
n 65 C0370
n 66 C0371
n 67 C0372
n 68 C0373
n 69 C0384
n 70 C0385
n 71 C0399
n 72 C0400
n 73 C0403
n 74 C0415
n 75 C0418
n 76 C0420
n 77 C0426
n 78 C0429
n 79 C0441
n 80 C0442
n 81 C0444
n 82 C0477
n 83 C0482
n 84 C0488
n 85 C0489
n 86 C0490
n 87 C0491
n 88 C0496
n 89 C0497
n 90 C0498
n 91 C0500
n 92 C0511
n 93 C0523
n 94 C0525
n 95 C0537
n 96 C0546
n 97 C0551
n 98 C0571
n 99 C0576
n 100 C0582
n 101 C0583
n 102 C0587
n 103 C0588
n 104 C0596
n 105 C0616
n 106 C0621
n 107 C0623
n 108 C0626
n 109 C0628
n 110 C0634
n 111 C0635
n 112 C0638
n 113 C0640
n 114 C0645
n 115 C0660
n 116 C0708
n 117 C0711
n 118 C0714
n 119 C0715
n 120 C0716
n 121 C0717
n 122 C0718
n 123 C0722
n 124 C0723
n 125 C0726
n 126 C0727
n 127 C0728
n 128 C0731
n 129 C0736
n 130 C0752
n 131 C0757
n 132 C0781
n 133 C0782
n 134 C0783
n 135 C0786
n 136 C0787
n 137 C0788
n 138 C0791
n 139 C0796
n 140 C0809
n 141 C0842
n 142 C0843
n 143 C0846
n 144 C0847
n 145 C0849
n 146 C0868
n 147 C0901
n 148 C0902
n 149 C0903
n 150 C0932
n 151 C0933
n 152 C0941
n 153 C0951
n 154 C0958
n 155 C0962
n 156 C0963
n 157 C0968
n 158 C0987
n 159 C0989
n 160 C0992
n 161 C0994
n 162 C0998
n 163 C0999
n 164 C1000
n 165 C1002
n 166 C1003
n 167 C1005
n 168 C1008
n 169 C1009
n 170 C1010
n 171 C1012
n 172 C1013
n 173 C1017
n 174 C1018
n 175 C1019
n 176 C1036
n 177 C1041
n 178 C1042
n 179 C1052
n 180 C1056
n 181 C1057
n 182 C1061
n 183 C1063
n 184 C1073
n 185 C1075
n 186 C1084
n 187 C1085
n 188 C1115
n 189 C1116
n 190 C1132
n 191 C1134
n 192 C1141
n 193 C1142
n 194 C1146
n 195 C1147
n 196 C1151
n 197 C1158
n 198 C1160
n 199 C1164
n 200 C1184
n 201 C1186
n 202 C1204
n 203 C1205
n 204 C1206
n 205 C1208
n 206 C1209
n 207 C1236
n 208 C1261
n 209 C1262
n 210 C1263
n 211 C1264
n 212 C1266
n 213 C1267
n 214 C1271
n 215 C1272
n 216 C1273
n 217 C1275
n 218 C1276
n 219 C1285
n 220 C1286
n 221 C1287
n 222 C1288
n 223 C1289
n 224 C1291
n 225 C1292
n 226 C1296
n 227 C1297
n 228 C1298
n 229 C1299
n 230 C1300
n 231 C1301
n 232 C1302
n 233 C1303
n 234 C1305
n 235 C1308
n 236 C1309
n 237 C1310
n 238 C1311
n 239 C1312
n 240 C1313
n 241 C1315
n 242 C1316
n 243 C1317
n 244 C1319
n 245 C1320
n 246 C1321
n 247 C1322
n 248 C1326
n 249 C1327
n 250 C1328
n 251 C1330
n 252 C1333
n 253 C1334
n 254 C1335
n 255 C1351
n 256 C1353
n 257 C1355
n 258 C1356
n 259 C1357
n 260 C1358
n 261 C1359
n 262 C1360
n 263 C1362
n 264 C1363
n 265 C1364
n 266 C1365
n 267 C1367
n 268 C1368
n 269 C1369
n 270 C1370
n 271 C1371
n 272 C1373
o 1 2
o 2 3
o 3 4
o 4 5
o 5 7
o 6 8
o 7 11
o 8 12
o 9 20
o 10 24
o 11 29
o 12 30
o 13 37
o 14 45
o 15 51
o 16 60
o 17 84
o 18 92
o 19 93
o 20 95
o 21 96
o 22 99
o 23 136
o 24 137
o 25 141
o 26 143
o 27 144
o 28 147
o 29 149
o 30 152
o 31 153
o 32 154
o 33 161
o 34 168
o 35 181
o 36 182
o 37 197
o 38 212
o 39 214
o 40 216
o 41 219
o 42 226
o 43 231
o 44 234
o 45 235
o 46 239
o 47 242
o 48 248
o 49 256
o 50 274
o 51 275
o 52 277
o 53 279
o 54 283
o 55 286
o 56 289
o 57 292
o 58 293
o 59 297
o 60 298
o 61 357
o 62 364
o 63 368
o 64 369
o 65 370
o 66 371
o 67 372
o 68 373
o 69 384
o 70 385
o 71 399
o 72 400
o 73 403
o 74 415
o 75 418
o 76 420
o 77 426
o 78 429
o 79 441
o 80 442
o 81 444
o 82 477
o 83 482
o 84 488
o 85 489
o 86 490
o 87 491
o 88 496
o 89 497
o 90 498
o 91 500
o 92 511
o 93 523
o 94 525
o 95 537
o 96 546
o 97 551
o 98 571
o 99 576
o 100 582
o 101 583
o 102 587
o 103 588
o 104 596
o 105 616
o 106 621
o 107 623
o 108 626
o 109 628
o 110 634
o 111 635
o 112 638
o 113 640
o 114 645
o 115 660
o 116 708
o 117 711
o 118 714
o 119 715
o 120 716
o 121 717
o 122 718
o 123 722
o 124 723
o 125 726
o 126 727
o 127 728
o 128 731
o 129 736
o 130 752
o 131 757
o 132 781
o 133 782
o 134 783
o 135 786
o 136 787
o 137 788
o 138 791
o 139 796
o 140 809
o 141 842
o 142 843
o 143 846
o 144 847
o 145 849
o 146 868
o 147 901
o 148 902
o 149 903
o 150 932
o 151 933
o 152 941
o 153 951
o 154 958
o 155 962
o 156 963
o 157 968
o 158 987
o 159 989
o 160 992
o 161 994
o 162 998
o 163 999
o 164 1000
o 165 1002
o 166 1003
o 167 1005
o 168 1008
o 169 1009
o 170 1010
o 171 1012
o 172 1013
o 173 1017
o 174 1018
o 175 1019
o 176 1036
o 177 1041
o 178 1042
o 179 1052
o 180 1056
o 181 1057
o 182 1061
o 183 1063
o 184 1073
o 185 1075
o 186 1084
o 187 1085
o 188 1115
o 189 1116
o 190 1132
o 191 1134
o 192 1141
o 193 1142
o 194 1146
o 195 1147
o 196 1151
o 197 1158
o 198 1160
o 199 1164
o 200 1184
o 201 1186
o 202 1204
o 203 1205
o 204 1206
o 205 1208
o 206 1209
o 207 1236
o 208 1261
o 209 1262
o 210 1263
o 211 1264
o 212 1266
o 213 1267
o 214 1271
o 215 1272
o 216 1273
o 217 1275
o 218 1276
o 219 1285
o 220 1286
o 221 1287
o 222 1288
o 223 1289
o 224 1291
o 225 1292
o 226 1296
o 227 1297
o 228 1298
o 229 1299
o 230 1300
o 231 1301
o 232 1302
o 233 1303
o 234 1305
o 235 1308
o 236 1309
o 237 1310
o 238 1311
o 239 1312
o 240 1313
o 241 1315
o 242 1316
o 243 1317
o 244 1319
o 245 1320
o 246 1321
o 247 1322
o 248 1326
o 249 1327
o 250 1328
o 251 1330
o 252 1333
o 253 1334
o 254 1335
o 255 1351
o 256 1353
o 257 1355
o 258 1356
o 259 1357
o 260 1358
o 261 1359
o 262 1360
o 263 1362
o 264 1363
o 265 1364
o 266 1365
o 267 1367
o 268 1368
o 269 1369
o 270 1370
o 271 1371
o 272 1373
